sat
(= row_11 0b001010011011)
(= col_1 0b100101101010)
(= row_2 0b011010101100)
(= row_7 0b010101001101)
(= row_3 0b100110010011)
(= col_3 0b101010100110)
(= col_10 0b011010100101)
(= row_10 0b110101100100)
(= col_7 0b101100101100)
(= col_8 0b010011011001)
(= col_11 0b010101011001)
(= row_4 0b101101100100)
(= col_2 0b010110010101)
(= row_5 0b011010101010)
(= row_6 0b100101010011)
(= row_8 0b101010100110)
(= row_9 0b010011011001)
(= col_9 0b100100110110)
(= row_1 0b001001011011)
(= col_0 0b101011001010)
(= row_0 0b110100110100)
(= col_4 0b101001001011)
(= col_5 0b010100110101)
(= col_6 0b011011010010)
